c Result of efficient AIG-to-CNF conversion using package CNF
p cnf 147 352
2 3 -40 0
2 -3 40 0
-2 -3 -40 0
-2 3 40 0
3 -142 4 -27 0
3 142 4 -14 0
-3 -4 0
-3 -142 27 0
-3 142 14 0
-4 125 5 8 11 0
4 -125 0
4 -11 0
4 -8 0
4 -5 0
-5 133 134 135 6 0
5 -6 0
5 -135 0
5 -133 0
5 -134 0
-6 130 131 132 7 0
6 -7 0
6 -132 0
6 -130 0
6 -131 0
-7 126 127 128 129 0
7 -129 0
7 -128 0
7 -126 0
7 -127 0
-8 119 120 9 10 0
8 -119 0
8 -10 0
8 -9 0
8 -120 0
-9 115 116 117 118 0
9 -118 0
9 -117 0
9 -115 0
9 -116 0
-10 121 122 0
10 -121 0
10 -122 0
-11 123 124 141 12 0
11 -12 0
11 -141 0
11 -123 0
11 -124 0
-12 137 139 140 13 0
12 -13 0
12 -140 0
12 -137 0
12 -139 0
-13 136 138 0
13 -136 0
13 -138 0
-14 143 15 0
-14 -143 -24 0
-14 -143 21 0
14 143 -15 0
14 -143 -21 24 0
-15 -144 18 0
-15 144 16 17 0
15 144 -16 0
15 -144 -18 0
15 144 -17 0
16 -111 -145 -146 0
16 -112 -145 146 0
-16 145 0
-16 111 -146 0
-16 112 146 0
17 -113 145 -146 0
17 -114 145 146 0
-17 -145 0
-17 113 -146 0
-17 114 146 0
18 145 -19 0
18 -145 -20 0
-18 -145 20 0
-18 145 19 0
19 -110 146 0
19 -109 -146 0
-19 110 146 0
-19 109 -146 0
20 -108 146 0
20 -107 -146 0
-20 108 146 0
-20 107 -146 0
-21 144 -145 23 0
-21 144 145 22 0
21 -144 0
21 -145 -23 0
21 145 -22 0
22 -106 146 0
22 -105 -146 0
-22 106 146 0
-22 105 -146 0
23 -104 146 0
23 -103 -146 0
-23 104 146 0
-23 103 -146 0
24 -144 -145 26 0
24 -144 145 25 0
-24 144 0
-24 -145 -26 0
-24 145 -25 0
25 -102 146 0
25 -101 -146 0
-25 102 146 0
-25 101 -146 0
26 -100 146 0
26 -99 -146 0
-26 100 146 0
-26 99 -146 0
27 143 -28 0
27 -143 -34 37 0
-27 -143 34 0
-27 143 28 0
-27 -143 -37 0
28 144 -29 0
28 -144 -32 33 0
-28 -144 32 0
-28 144 29 0
-28 -144 -33 0
29 145 -30 0
29 -145 -31 0
-29 -145 31 0
-29 145 30 0
30 -98 146 0
30 -97 -146 0
-30 98 146 0
-30 97 -146 0
31 -96 146 0
31 -95 -146 0
-31 96 146 0
-31 95 -146 0
-32 93 145 -146 0
-32 94 145 146 0
32 -145 0
32 -94 146 0
32 -93 -146 0
33 91 -145 -146 0
33 92 -145 146 0
-33 145 0
-33 -92 146 0
-33 -91 -146 0
-34 144 -145 36 0
-34 144 145 35 0
34 -144 0
34 -145 -36 0
34 145 -35 0
35 -90 146 0
35 -89 -146 0
-35 90 146 0
-35 89 -146 0
36 -88 146 0
36 -87 -146 0
-36 88 146 0
-36 87 -146 0
37 -144 -145 39 0
37 -144 145 38 0
-37 144 0
-37 -145 -39 0
-37 145 -38 0
38 -86 146 0
38 -85 -146 0
-38 86 146 0
-38 85 -146 0
39 -84 146 0
39 -83 -146 0
-39 84 146 0
-39 83 -146 0
40 -142 4 -61 0
40 142 4 -41 0
-40 -4 0
-40 -142 61 0
-40 142 41 0
-41 143 42 0
-41 -143 -56 0
-41 -143 51 0
41 143 -42 0
41 -143 -51 56 0
-42 -144 46 0
-42 144 17 43 0
42 144 -17 0
42 -144 -46 0
42 144 -43 0
43 -145 -146 -45 0
43 -145 146 -44 0
-43 145 0
-43 -146 45 0
-43 146 44 0
-44 112 144 0
44 -112 0
44 -144 0
-45 111 143 0
45 -111 0
45 -143 0
46 145 -47 0
46 -145 -49 0
-46 -145 49 0
-46 145 47 0
47 -142 146 0
47 -146 -48 0
47 -110 146 0
-47 -146 48 0
-47 110 142 146 0
-48 109 141 0
48 -109 0
48 -141 0
49 146 -50 0
49 -107 -146 0
49 -139 -146 0
-49 146 50 0
-49 107 139 -146 0
-50 108 140 0
50 -108 0
50 -140 0
-51 144 -145 54 0
-51 144 145 52 0
51 -144 0
51 -145 -54 0
51 145 -52 0
52 146 -53 0
52 -105 -146 0
52 -137 -146 0
-52 146 53 0
-52 105 137 -146 0
-53 106 138 0
53 -106 0
53 -138 0
54 146 -55 0
54 -103 -146 0
54 -135 -146 0
-54 146 55 0
-54 103 135 -146 0
-55 104 136 0
55 -104 0
55 -136 0
56 -144 -145 59 0
56 -144 145 57 0
-56 144 0
-56 -145 -59 0
-56 145 -57 0
57 146 -58 0
57 -101 -146 0
57 -133 -146 0
-57 146 58 0
-57 101 133 -146 0
-58 102 134 0
58 -102 0
58 -134 0
59 146 -60 0
59 -99 -146 0
59 -131 -146 0
-59 146 60 0
-59 99 131 -146 0
-60 100 132 0
60 -100 0
60 -132 0
61 143 -62 0
61 -143 -73 78 0
-61 -143 73 0
-61 143 62 0
-61 -143 -78 0
62 144 -63 0
62 -144 -68 0
-62 -144 68 0
-62 144 63 0
63 145 -64 0
63 -145 -66 0
-63 -145 66 0
-63 145 64 0
64 146 -65 0
64 -97 -146 0
64 -129 -146 0
-64 146 65 0
-64 97 129 -146 0
-65 98 130 0
65 -98 0
65 -130 0
66 146 -67 0
66 -95 -146 0
66 -127 -146 0
-66 146 67 0
-66 95 127 -146 0
-67 96 128 0
67 -96 0
67 -128 0
68 145 -69 0
68 -145 -71 0
-68 -145 71 0
-68 145 69 0
69 146 -70 0
69 -93 -146 0
69 -125 -146 0
-69 146 70 0
-69 93 125 -146 0
-70 94 126 0
70 -94 0
70 -126 0
71 146 -72 0
71 -91 -146 0
71 -123 -146 0
-71 146 72 0
-71 91 123 -146 0
-72 92 124 0
72 -92 0
72 -124 0
-73 144 -145 76 0
-73 144 145 74 0
73 -144 0
73 -145 -76 0
73 145 -74 0
74 146 -75 0
74 -89 -146 0
74 -121 -146 0
-74 146 75 0
-74 89 121 -146 0
-75 90 122 0
75 -90 0
75 -122 0
76 146 -77 0
76 -87 -146 0
76 -119 -146 0
-76 146 77 0
-76 87 119 -146 0
-77 88 120 0
77 -88 0
77 -120 0
78 -144 -145 81 0
78 -144 145 79 0
-78 144 0
-78 -145 -81 0
-78 145 -79 0
79 146 -80 0
79 -85 -146 0
79 -117 -146 0
-79 146 80 0
-79 85 117 -146 0
-80 86 118 0
80 -86 0
80 -118 0
81 146 -82 0
81 -83 -146 0
81 -115 -146 0
-81 146 82 0
-81 83 115 -146 0
-82 84 116 0
82 -84 0
82 -116 0
-147 0
2 0

